p cnf 52 101
c x0 -> 44
c x1 -> 16
c x2 -> 45
c x3 -> 14
c x4 -> 36
c x5 -> 47
2 3 -1 0
-2 -3 -1 0
2 -3 1 0
-2 3 1 0
4 2 0
-4 -2 0
5 3 0
-5 -3 0
6 -4 0
7 -4 0
-6 -7 4 0
8 5 0
9 5 0
-8 -9 -5 0
10 6 0
-10 -6 0
11 7 0
-11 -7 0
12 8 0
-12 -8 0
13 9 0
-13 -9 0
14 -10 0
15 -10 0
-14 -15 10 0
16 -11 0
17 -11 0
-16 -17 11 0
14 -12 0
19 -12 0
-14 -19 12 0
-16 13 0
-21 13 0
16 21 -13 0
22 15 0
-22 -15 0
23 17 0
-23 -17 0
24 19 0
-24 -19 0
25 21 0
-25 -21 0
26 -22 0
27 -22 0
-26 -27 22 0
28 -23 0
29 -23 0
-28 -29 23 0
30 -24 0
31 -24 0
-30 -31 24 0
32 25 0
33 25 0
-32 -33 -25 0
34 26 0
-34 -26 0
35 27 0
-35 -27 0
36 28 0
-36 -28 0
37 29 0
-37 -29 0
38 30 0
-38 -30 0
39 31 0
-39 -31 0
36 32 0
-36 -32 0
41 33 0
-41 -33 0
42 -34 0
43 -34 0
-42 -43 34 0
44 -35 0
45 -35 0
-44 -45 35 0
46 -37 0
47 -37 0
-46 -47 37 0
48 -38 0
49 -38 0
-48 -49 38 0
44 -39 0
45 -39 0
-44 -45 39 0
52 -41 0
47 -41 0
-52 -47 41 0
16 42 0
-16 -42 0
45 43 0
-45 -43 0
44 46 0
-44 -46 0
16 48 0
-16 -48 0
45 49 0
-45 -49 0
44 52 0
-44 -52 0
1 0
